c THIS FORMULA IS GENERATED BY CNF
c 
c atomics
c X_PI <= 42.09_1_p:1
c X_PI <= 63.52_2_n:2
c X_PI <= 80.61_2_p:3
c X_PI <= 80.61_2_s:4
c C_2_1:5
c X_PI <= 48.12_2_s:6
c X_PI <= 48.12_1_n:7
c X_PI <= 70.62_1_s:8
c X_PI <= 48.12_1_s:9
c C_1_2:10
c C_2_2:11
c X_PI <= 80.61_1_p:12
c X_PI <= 63.52_1_p:13
c X_PI <= 48.12_1_p:14
c X_PI <= 42.09_2_s:15
c X_PI <= 63.52_2_s:16
c X_PI <= 54.92_1_n:17
c X_PI <= 70.62_1_n:18
c X_PI <= 80.61_1_n:19
c X_PI <= 80.61_1_s:20
c X_PI <= 42.09_2_p:21
c X_PI <= 63.52_2_p:22
c X_PI <= 63.52_1_s:23
c X_PI <= 42.09_1_s:24
c X_PI <= 70.62_2_s:25
c X_PI <= 54.92_1_p:26
c X_PI <= 42.09_1_n:27
c X_PI <= 80.61_2_n:28
c X_PI <= 48.12_2_p:29
c X_PI <= 70.62_2_p:30
c C_1_3:31
c X_PI <= 54.92_1_s:32
c X_PI <= 54.92_2_n:33
c X_PI <= 70.62_1_p:34
c X_PI <= 70.62_2_n:35
c X_PI <= 63.52_1_n:36
c X_PI <= 42.09_2_n:37
c X_PI <= 48.12_2_n:38
c C_1_1:39
c C_2_3:40
c X_PI <= 54.92_2_p:41
c X_PI <= 54.92_2_s:42
c end atomics
p cnf 42 370
1 -1 -1 0
1 -1 -27 0
1 -1 24 0
1 27 -1 0
1 27 -27 0
1 27 24 0
1 -24 -1 0
1 -24 -27 0
1 -24 24 0
-27 -1 -1 0
-27 -1 -27 0
-27 -1 24 0
-27 27 -1 0
-27 27 -27 0
-27 27 24 0
-27 -24 -1 0
-27 -24 -27 0
-27 -24 24 0
-24 -1 -1 0
-24 -1 -27 0
-24 -1 24 0
-24 27 -1 0
-24 27 -27 0
-24 27 24 0
-24 -24 -1 0
-24 -24 -27 0
-24 -24 24 0
14 -14 -14 0
14 -14 -7 0
14 -14 9 0
14 7 -14 0
14 7 -7 0
14 7 9 0
14 -9 -14 0
14 -9 -7 0
14 -9 9 0
-7 -14 -14 0
-7 -14 -7 0
-7 -14 9 0
-7 7 -14 0
-7 7 -7 0
-7 7 9 0
-7 -9 -14 0
-7 -9 -7 0
-7 -9 9 0
-9 -14 -14 0
-9 -14 -7 0
-9 -14 9 0
-9 7 -14 0
-9 7 -7 0
-9 7 9 0
-9 -9 -14 0
-9 -9 -7 0
-9 -9 9 0
26 -26 -26 0
26 -26 -17 0
26 -26 32 0
26 17 -26 0
26 17 -17 0
26 17 32 0
26 -32 -26 0
26 -32 -17 0
26 -32 32 0
-17 -26 -26 0
-17 -26 -17 0
-17 -26 32 0
-17 17 -26 0
-17 17 -17 0
-17 17 32 0
-17 -32 -26 0
-17 -32 -17 0
-17 -32 32 0
-32 -26 -26 0
-32 -26 -17 0
-32 -26 32 0
-32 17 -26 0
-32 17 -17 0
-32 17 32 0
-32 -32 -26 0
-32 -32 -17 0
-32 -32 32 0
13 -13 -13 0
13 -13 -36 0
13 -13 23 0
13 36 -13 0
13 36 -36 0
13 36 23 0
13 -23 -13 0
13 -23 -36 0
13 -23 23 0
-36 -13 -13 0
-36 -13 -36 0
-36 -13 23 0
-36 36 -13 0
-36 36 -36 0
-36 36 23 0
-36 -23 -13 0
-36 -23 -36 0
-36 -23 23 0
-23 -13 -13 0
-23 -13 -36 0
-23 -13 23 0
-23 36 -13 0
-23 36 -36 0
-23 36 23 0
-23 -23 -13 0
-23 -23 -36 0
-23 -23 23 0
34 -34 -34 0
34 -34 -18 0
34 -34 8 0
34 18 -34 0
34 18 -18 0
34 18 8 0
34 -8 -34 0
34 -8 -18 0
34 -8 8 0
-18 -34 -34 0
-18 -34 -18 0
-18 -34 8 0
-18 18 -34 0
-18 18 -18 0
-18 18 8 0
-18 -8 -34 0
-18 -8 -18 0
-18 -8 8 0
-8 -34 -34 0
-8 -34 -18 0
-8 -34 8 0
-8 18 -34 0
-8 18 -18 0
-8 18 8 0
-8 -8 -34 0
-8 -8 -18 0
-8 -8 8 0
12 -12 -12 0
12 -12 -19 0
12 -12 20 0
12 19 -12 0
12 19 -19 0
12 19 20 0
12 -20 -12 0
12 -20 -19 0
12 -20 20 0
-19 -12 -12 0
-19 -12 -19 0
-19 -12 20 0
-19 19 -12 0
-19 19 -19 0
-19 19 20 0
-19 -20 -12 0
-19 -20 -19 0
-19 -20 20 0
-20 -12 -12 0
-20 -12 -19 0
-20 -12 20 0
-20 19 -12 0
-20 19 -19 0
-20 19 20 0
-20 -20 -12 0
-20 -20 -19 0
-20 -20 20 0
21 -21 -21 0
21 -21 -37 0
21 -21 15 0
21 37 -21 0
21 37 -37 0
21 37 15 0
21 -15 -21 0
21 -15 -37 0
21 -15 15 0
-37 -21 -21 0
-37 -21 -37 0
-37 -21 15 0
-37 37 -21 0
-37 37 -37 0
-37 37 15 0
-37 -15 -21 0
-37 -15 -37 0
-37 -15 15 0
-15 -21 -21 0
-15 -21 -37 0
-15 -21 15 0
-15 37 -21 0
-15 37 -37 0
-15 37 15 0
-15 -15 -21 0
-15 -15 -37 0
-15 -15 15 0
29 -29 -29 0
29 -29 -38 0
29 -29 6 0
29 38 -29 0
29 38 -38 0
29 38 6 0
29 -6 -29 0
29 -6 -38 0
29 -6 6 0
-38 -29 -29 0
-38 -29 -38 0
-38 -29 6 0
-38 38 -29 0
-38 38 -38 0
-38 38 6 0
-38 -6 -29 0
-38 -6 -38 0
-38 -6 6 0
-6 -29 -29 0
-6 -29 -38 0
-6 -29 6 0
-6 38 -29 0
-6 38 -38 0
-6 38 6 0
-6 -6 -29 0
-6 -6 -38 0
-6 -6 6 0
41 -41 -41 0
41 -41 -33 0
41 -41 42 0
41 33 -41 0
41 33 -33 0
41 33 42 0
41 -42 -41 0
41 -42 -33 0
41 -42 42 0
-33 -41 -41 0
-33 -41 -33 0
-33 -41 42 0
-33 33 -41 0
-33 33 -33 0
-33 33 42 0
-33 -42 -41 0
-33 -42 -33 0
-33 -42 42 0
-42 -41 -41 0
-42 -41 -33 0
-42 -41 42 0
-42 33 -41 0
-42 33 -33 0
-42 33 42 0
-42 -42 -41 0
-42 -42 -33 0
-42 -42 42 0
22 -22 -22 0
22 -22 -2 0
22 -22 16 0
22 2 -22 0
22 2 -2 0
22 2 16 0
22 -16 -22 0
22 -16 -2 0
22 -16 16 0
-2 -22 -22 0
-2 -22 -2 0
-2 -22 16 0
-2 2 -22 0
-2 2 -2 0
-2 2 16 0
-2 -16 -22 0
-2 -16 -2 0
-2 -16 16 0
-16 -22 -22 0
-16 -22 -2 0
-16 -22 16 0
-16 2 -22 0
-16 2 -2 0
-16 2 16 0
-16 -16 -22 0
-16 -16 -2 0
-16 -16 16 0
30 -30 -30 0
30 -30 -35 0
30 -30 25 0
30 35 -30 0
30 35 -35 0
30 35 25 0
30 -25 -30 0
30 -25 -35 0
30 -25 25 0
-35 -30 -30 0
-35 -30 -35 0
-35 -30 25 0
-35 35 -30 0
-35 35 -35 0
-35 35 25 0
-35 -25 -30 0
-35 -25 -35 0
-35 -25 25 0
-25 -30 -30 0
-25 -30 -35 0
-25 -30 25 0
-25 35 -30 0
-25 35 -35 0
-25 35 25 0
-25 -25 -30 0
-25 -25 -35 0
-25 -25 25 0
3 -3 -3 0
3 -3 -28 0
3 -3 4 0
3 28 -3 0
3 28 -28 0
3 28 4 0
3 -4 -3 0
3 -4 -28 0
3 -4 4 0
-28 -3 -3 0
-28 -3 -28 0
-28 -3 4 0
-28 28 -3 0
-28 28 -28 0
-28 28 4 0
-28 -4 -3 0
-28 -4 -28 0
-28 -4 4 0
-4 -3 -3 0
-4 -3 -28 0
-4 -3 4 0
-4 28 -3 0
-4 28 -28 0
-4 28 4 0
-4 -4 -3 0
-4 -4 -28 0
-4 -4 4 0
-24 -9 -32 -23 -8 -20 0
-15 -6 -42 -16 -25 -4 0
1 14 17 36 18 19 0
21 29 33 2 35 28 0
27 14 26 13 34 19 0
37 29 41 22 30 28 0
1 7 17 36 18 19 0
21 38 33 2 35 28 0
-1 -39 0
-14 -39 0
-26 -39 0
-13 -39 0
-34 -39 0
-12 -39 0
-21 -5 0
-29 -5 0
-41 -5 0
-22 -5 0
-30 -5 0
-3 -5 0
-1 -10 0
-14 -10 0
-26 -10 0
-13 -10 0
-34 -10 0
-19 -10 0
-21 -11 0
-29 -11 0
-41 -11 0
-22 -11 0
-30 -11 0
-28 -11 0
-1 -31 0
-14 -31 0
-26 -31 0
-13 -31 0
-18 -31 0
-19 -31 0
-21 -40 0
-29 -40 0
-41 -40 0
-22 -40 0
-35 -40 0
-28 -40 0
39 5 0
10 11 0
31 40 0
